Version identifier: 22.1.1.0 | 2022-11-28 | 9160aff4d
CPXPARAM_ClockType                               1
CPXPARAM_Read_DataCheck                          1
CPXPARAM_Threads                                 1
CPXPARAM_TimeLimit                               7200
CPXPARAM_MIP_Tolerances_AbsMIPGap                0
CPXPARAM_MIP_Tolerances_MIPGap                   0
CPXPARAM_MIP_Tolerances_Integrality              0
Tried aggregator 4 times.
MIP Presolve eliminated 22519 rows and 561 columns.
Aggregator did 140 substitutions.
Reduced MIP has 3288 rows, 679 columns, and 8793 nonzeros.
Reduced MIP has 679 binaries, 0 generals, 0 SOSs, and 0 indicators.
Presolve time = 0.04 sec. (26.88 ticks)
Found incumbent of value 0.000000 after 0.04 sec. (31.29 ticks)
Probing time = 0.01 sec. (2.85 ticks)
Tried aggregator 1 time.
Detecting symmetries...
MIP Presolve eliminated 2 rows and 0 columns.
MIP Presolve modified 2 coefficients.
Reduced MIP has 3286 rows, 679 columns, and 8788 nonzeros.
Reduced MIP has 679 binaries, 0 generals, 0 SOSs, and 0 indicators.
Presolve time = 0.01 sec. (6.69 ticks)
Probing time = 0.00 sec. (2.86 ticks)
Clique table members: 2476.
MIP emphasis: balance optimality and feasibility.
MIP search method: dynamic search.
Parallel mode: none, using 1 thread.
Root relaxation solution time = 0.02 sec. (10.38 ticks)

        Nodes                                         Cuts/
   Node  Left     Objective  IInf  Best Integer    Best Bound    ItCnt     Gap

*     0+    0                            0.0000      136.0000              --- 
      0     0      136.0000   272        0.0000      136.0000      172     --- 
*     0+    0                           59.0000      136.0000           130.51%
      0     0      132.0000   273       59.0000     Cuts: 118      310  123.73%
*     0+    0                           90.0000      132.0000            46.67%
      0     0      131.1136   285       90.0000      Cuts: 58      392   45.68%
      0     0      130.6548   290       90.0000      Cuts: 69      519   45.17%
      0     0      130.4258   293       90.0000  ZeroHalf: 38      575   44.92%
      0     0      129.8022   302       90.0000      Cuts: 55      672   44.22%
*     0+    0                          120.0000      129.8022             8.17%
Detecting symmetries...
      0     0      129.1890   306      120.0000  ZeroHalf: 56      815    7.66%
*     0+    0                          125.0000      129.1890             3.35%
      0     0      128.7779   314      125.0000  ZeroHalf: 57      946    3.02%
      0     0      128.3703   315      125.0000  ZeroHalf: 54     1065    2.70%
      0     0      128.1407   309      125.0000  ZeroHalf: 37     1166    2.51%
      0     0      128.0702   318      125.0000  ZeroHalf: 24     1210    2.46%
      0     0      127.7573   318      125.0000  ZeroHalf: 42     1323    2.21%
      0     0      127.6022   321      125.0000  ZeroHalf: 59     1387    2.08%
      0     0      127.5725   319      125.0000  ZeroHalf: 20     1442    2.06%
      0     0      127.5192   334      125.0000  ZeroHalf: 22     1483    2.02%
      0     0      127.4753   335      125.0000  ZeroHalf: 10     1542    1.98%
      0     0      127.4193   329      125.0000  ZeroHalf: 16     1595    1.94%
      0     0      127.3929   324      125.0000  ZeroHalf: 10     1643    1.91%
*     0+    0                          126.0000      127.3929             1.11%
Detecting symmetries...

Repeating presolve.
Tried aggregator 4 times.
MIP Presolve eliminated 1567 rows and 311 columns.
MIP Presolve modified 335 coefficients.
Aggregator did 122 substitutions.
Reduced MIP has 1597 rows, 246 columns, and 3931 nonzeros.
Reduced MIP has 246 binaries, 0 generals, 0 SOSs, and 0 indicators.
Presolve time = 0.04 sec. (22.89 ticks)
Probing time = 0.01 sec. (2.57 ticks)
Tried aggregator 1 time.
Detecting symmetries...
Reduced MIP has 1597 rows, 246 columns, and 3931 nonzeros.
Reduced MIP has 246 binaries, 0 generals, 0 SOSs, and 0 indicators.
Presolve time = 0.00 sec. (3.10 ticks)
Represolve time = 0.07 sec. (35.00 ticks)
Probing time = 0.01 sec. (2.55 ticks)
Clique table members: 2005.
MIP emphasis: balance optimality and feasibility.
MIP search method: dynamic search.
Parallel mode: none, using 1 thread.
Root relaxation solution time = 0.03 sec. (17.91 ticks)

        Nodes                                         Cuts/
   Node  Left     Objective  IInf  Best Integer    Best Bound    ItCnt     Gap

*     0+    0                          126.0000      127.3929             1.11%
      0     0        cutoff            126.0000      126.0000     2054    0.00%
      0     0        cutoff            126.0000      126.0000     2054    0.00%
Elapsed time = 2.68 sec. (1394.09 ticks, tree = 0.01 MB, solutions = 6)

Clique cuts applied:  1
Zero-half cuts applied:  48
Gomory fractional cuts applied:  1

Root node processing (before b&c):
  Real time             =    2.68 sec. (1394.15 ticks)
Sequential b&c:
  Real time             =    0.00 sec. (0.00 ticks)
                          ------------
Total (root+branch&cut) =    2.68 sec. (1394.15 ticks)
Solution is feasible.

---------------------
@@@ MIP_optimal
>>> Benchmark mc2024_track1_185.cnf k 2 OPT 126 TimeCost 4.252695322036743 TimeSolve 2.7091550827026367 TimeRead 0.07081961631774902 TimeTrans 1.4727206230163574
